GLPSOL: GLPK LP/MIP Solver, v4.55
Parameter(s) specified in the command line:
 -m tmp.mod
Reading model section from tmp.mod...
Reading data section from tmp.mod...
135 lines were read
Generating obj...
Generating kirhoff...
Generating init_charge...
Generating batt_size...
Model has been successfully generated
GLPK Simplex Optimizer, v4.55
67 rows, 116 columns, 204 non-zeros
Preprocessing...
44 rows, 74 columns, 150 non-zeros
Scaling...
 A: min|aij| =  1.000e+00  max|aij| =  1.000e+00  ratio =  1.000e+00
Problem data seem to be well scaled
Constructing initial basis...
Size of triangular part is 37
      0: obj =   0.000000000e+00  infeas =  1.700e+02 (7)
*    25: obj =   1.000000000e+00  infeas =  0.000e+00 (2)
OPTIMAL LP SOLUTION FOUND
Time used:   0.0 secs
Memory used: 0.3 Mb (305760 bytes)
#OUTPUT:
1
-19 0 -18 0 -3 0 0 0 0 -3 -8 -11 0 
-17 0 -19 0 -20 0 0 0 0 -20 0 0 0 
-2 -2 -7 -2 -7 0 0 0 0 0 0 0 0 
-19 -19 -17 0 -17 0 -17 0 -17 0 -19 0 0 
#OUTPUT END
Model has been successfully processed
